
Log started (V12.10.0.0) Fri Apr  9 00:29:26 2021


Problem 'asset.lp' read.
Read time = 0.00 sec. (0.13 ticks)
New value for default parallel thread count: 1
New value for time limit in seconds: 200
Version identifier: 12.10.0.0 | 2019-11-26 | 843d4de
CPXPARAM_Threads                                 1
CPXPARAM_TimeLimit                               200
Found incumbent of value -0.886299 after 0.00 sec. (0.06 ticks)
Tried aggregator 3 times.
MIP Presolve eliminated 612 rows and 422 columns.
MIP Presolve modified 1199 coefficients.
Aggregator did 272 substitutions.
Reduced MIP has 349 rows, 354 columns, and 1467 nonzeros.
Reduced MIP has 314 binaries, 17 generals, 0 SOSs, and 0 indicators.
Presolve time = 0.00 sec. (3.96 ticks)
Probing fixed 105 vars, tightened 6 bounds.
Probing time = 0.00 sec. (0.82 ticks)
Cover probing fixed 0 vars, tightened 28 bounds.
Tried aggregator 1 time.
MIP Presolve eliminated 147 rows and 143 columns.
MIP Presolve modified 19 coefficients.
Reduced MIP has 202 rows, 207 columns, and 674 nonzeros.
Reduced MIP has 179 binaries, 6 generals, 0 SOSs, and 0 indicators.
Presolve time = 0.00 sec. (0.75 ticks)
Probing time = 0.00 sec. (0.38 ticks)
Tried aggregator 1 time.
Detecting symmetries...
MIP Presolve modified 8 coefficients.
Reduced MIP has 202 rows, 207 columns, and 674 nonzeros.
Reduced MIP has 179 binaries, 6 generals, 0 SOSs, and 0 indicators.
Presolve time = 0.00 sec. (0.47 ticks)
Probing time = 0.00 sec. (0.38 ticks)
Clique table members: 591.
MIP emphasis: balance optimality and feasibility.
MIP search method: dynamic search.
Parallel mode: none, using 1 thread.
Root relaxation solution time = 0.00 sec. (1.11 ticks)

        Nodes                                         Cuts/
   Node  Left     Objective  IInf  Best Integer    Best Bound    ItCnt     Gap

*     0+    0                           -0.8863      226.0072              --- 
      0     0      130.3683    55       -0.8863      130.3683      145     --- 
*     0+    0                          116.3706      130.3683            12.03%
      0     0      126.6173    55      116.3706      Cuts: 96      189    8.81%
*     0+    0                          117.3035      126.6173             7.94%
      0     0      126.6143    55      117.3035      Cuts: 41      219    7.94%
      0     0      126.6134    55      117.3035      Cuts: 17      233    7.94%
      0     0      126.5110    55      117.3035      Cuts: 10      255    7.85%
      0     0      126.1422    55      117.3035      Cuts: 10      267    7.53%
Detecting symmetries...
      0     0      125.7663    55      117.3035      Cuts: 23      300    7.21%
      0     0      125.7033    55      117.3035      Cuts: 28      323    7.16%
      0     0      125.6544    55      117.3035      Cuts: 16      335    7.12%
      0     0      124.6955    55      117.3035       Cuts: 6      366    6.30%
      0     0      124.0794    55      117.3035      Cuts: 37      447    5.78%
      0     0      124.0662    55      117.3035      Cuts: 22      483    5.77%
*     0+    0                          122.3423      124.0662             1.41%
*     0+    0                          122.3436      124.0662             1.41%
Detecting symmetries...

Repeating presolve.
Tried aggregator 3 times.
MIP Presolve eliminated 48 rows and 66 columns.
MIP Presolve modified 2 coefficients.
Aggregator did 5 substitutions.
Reduced MIP has 149 rows, 136 columns, and 474 nonzeros.
Reduced MIP has 119 binaries, 1 generals, 0 SOSs, and 0 indicators.
Presolve time = 0.00 sec. (0.43 ticks)
Probing fixed 2 vars, tightened 0 bounds.
Probing time = 0.00 sec. (0.21 ticks)
Cover probing fixed 0 vars, tightened 11 bounds.
Tried aggregator 1 time.
MIP Presolve eliminated 14 rows and 5 columns.
MIP Presolve modified 40 coefficients.
Reduced MIP has 135 rows, 131 columns, and 431 nonzeros.
Reduced MIP has 114 binaries, 1 generals, 0 SOSs, and 0 indicators.
Presolve time = 0.00 sec. (0.37 ticks)
Probing time = 0.00 sec. (0.18 ticks)
Cover probing fixed 0 vars, tightened 1 bounds.
Tried aggregator 1 time.
Detecting symmetries...
MIP Presolve eliminated 1 rows and 0 columns.
MIP Presolve modified 10 coefficients.
Reduced MIP has 134 rows, 131 columns, and 429 nonzeros.
Reduced MIP has 114 binaries, 1 generals, 0 SOSs, and 0 indicators.
Presolve time = 0.00 sec. (0.30 ticks)
Represolve time = 0.00 sec. (2.76 ticks)
Probing time = 0.00 sec. (0.18 ticks)
Clique table members: 280.
MIP emphasis: balance optimality and feasibility.
MIP search method: dynamic search.
Parallel mode: none, using 1 thread.
Root relaxation solution time = 0.00 sec. (1.55 ticks)

        Nodes                                         Cuts/
   Node  Left     Objective  IInf  Best Integer    Best Bound    ItCnt     Gap

*     0+    0                          122.3436      124.0662             1.41%
      0     0      124.0634    36      122.3436      124.0634      611    1.41%
      0     0      124.0064    36      122.3436      Cuts: 33      654    1.36%
*     0+    0                          122.3444      124.0064             1.36%
      0     0      123.8470    36      122.3444      Cuts: 33      679    1.23%
      0     0      123.6864    36      122.3444      Cuts: 23      699    1.10%
*     0+    0                          122.3444      123.6864             1.10%
      0     0      123.5955    36      122.3444      Cuts: 17      723    1.02%
      0     0      123.4167    36      122.3444      Cuts: 23      747    0.88%
      0     0      123.4085    36      122.3444      Cuts: 25      766    0.87%
      0     0      123.3841    36      122.3444      Cuts: 21      782    0.85%
*     0+    0                          123.3813      123.3841             0.00%

Clique cuts applied:  8
Cover cuts applied:  2
Implied bound cuts applied:  31
Flow cuts applied:  1
Mixed integer rounding cuts applied:  15
Zero-half cuts applied:  16
Lift and project cuts applied:  4
Gomory fractional cuts applied:  2

Root node processing (before b&c):
  Real time             =    0.08 sec. (56.41 ticks)
Sequential b&c:
  Real time             =    0.00 sec. (0.00 ticks)
                          ------------
Total (root+branch&cut) =    0.08 sec. (56.41 ticks)

Solution pool: 8 solutions saved.

MIP - Integer optimal, tolerance (0.0001/1e-06):  Objective =  1.2338129533e+02
Current MIP best bound =  1.2338406916e+02 (gap = 0.00277382, 0.00%)
Solution time =    0.08 sec.  Iterations = 782  Nodes = 0 (1)
Deterministic time = 56.41 ticks  (730.88 ticks/sec)


Incumbent solution
Variable Name           Solution Value
F                           135.000000
f1                            0.908705
f2                           10.710000
y21                           1.000000
y82                           1.000000
y5                            1.000000
y73                           1.000000
y18                           1.000000
y122                          1.000000
y186                          1.000000
y106                          1.000000
y177                          1.000000
s2                            6.000000
s21                           6.568596
s44                           6.000000
s46                           6.000000
s70                           6.000000
s80                           6.000000
s82                           6.517084
s90                           6.000000
s109                          6.000000
s115                          6.000000
s120                          6.000000
s126                          6.000000
s172                          6.000000
s179                          6.000000
s105                          6.010000
s5                            6.607892
s84                           6.230000
s137                          6.280000
s178                          6.280000
s135                          6.290000
s73                           7.162195
s64                           6.540000
s18                           7.613036
s66                           6.800000
s33                           6.860000
s122                          7.862610
s173                          6.900000
s145                          6.920000
s19                           6.970000
s25                           6.980000
s186                          7.606327
s106                          7.709568
s61                           7.100000
s177                          7.242439
x151x21x1                     1.000000
x27x82x1                      2.000000
x43x5x1                       1.000000
x29x18x1                      1.000000
x20x18x1                      1.000000
x110x73x1                     1.000000
x151x21x2                     1.000000
x29x186x2                     1.000000
x7x177x2                      1.000000
x20x106x2                     1.000000
x110x177x2                    1.000000
x43x5x3                       1.000000
x7x73x3                       1.000000
x124x186x3                    1.000000
x124x106x3                    1.000000
x21x0x1                       1.000000
x21x122x2                     1.000000
x82x0x1                       2.000000
x5x0x1                        1.000000
x5x122x3                      1.000000
x73x0x1                       1.000000
x73x0x3                       1.000000
x18x0x1                       2.000000
x122x0x2                      1.000000
x122x0x3                      1.000000
x186x0x2                      1.000000
x186x0x3                      1.000000
x106x0x2                      1.000000
x106x0x3                      1.000000
x177x0x2                      2.000000
s151                          5.119774
z151z21z1                     1.000000
z151z21z2                     1.000000
z151z61z2                     1.000000
z151z177z2                    1.000000
s27                           5.149845
z27z82z1                      1.000000
s43                           5.341616
z43z5z1                       1.000000
z43z5z3                       1.000000
s29                           5.733141
z29z18z1                      1.000000
z29z186z2                     1.000000
s7                            5.509123
z7z73z3                       1.000000
z7z177z2                      1.000000
s20                           5.837088
z20z18z1                      1.000000
z20z106z2                     1.000000
s110                          5.870000
z110z73z1                     1.000000
z110z177z2                    1.000000
s124                          5.942007
z124z186z3                    1.000000
z124z106z3                    1.000000
z21z122z2                     1.000000
z5z122z3                      1.000000
All other variables in the range 1-1052 are 0.
